
Gurobi 9.5.1 (linux64) logging started Thu Jun  9 14:12:05 2022

Set parameter LogFile to value "../results/logs/log_socfb-Syracuse56_20_250_2022_06_09_13_11.log"
Gurobi Optimizer version 9.5.1 build v9.5.1rc2 (linux64)
Thread count: 8 physical cores, 8 logical processors, using up to 8 threads
Optimize a model with 487 rows, 27306 columns and 14662 nonzeros
Model fingerprint: 0xbeede414
Variable types: 0 continuous, 27306 integer (27306 binary)
Coefficient statistics:
  Matrix range     [1e+00, 2e+01]
  Objective range  [1e+00, 1e+00]
  Bounds range     [1e+00, 1e+00]
  RHS range        [1e+00, 2e+02]
Found heuristic solution: objective 10858.000000
Presolve removed 137 rows and 26614 columns
Presolve time: 0.01s
Presolved: 350 rows, 692 columns, 2892 nonzeros
Variable types: 0 continuous, 692 integer (606 binary)
Found heuristic solution: objective 10969.000000

Root relaxation: objective 1.109002e+04, 294 iterations, 0.00 seconds (0.00 work units)

    Nodes    |    Current Node    |     Objective Bounds      |     Work
 Expl Unexpl |  Obj  Depth IntInf | Incumbent    BestBd   Gap | It/Node Time

     0     0 11090.0162    0   52 10969.0000 11090.0162  1.10%     -    0s
H    0     0                    11075.000000 11090.0162  0.14%     -    0s
H    0     0                    11076.000000 11090.0162  0.13%     -    0s
H    0     0                    11078.000000 11090.0162  0.11%     -    0s
     0     0 11085.1775    0   64 11078.0000 11085.1775  0.06%     -    0s
H    0     0                    11079.000000 11085.1775  0.06%     -    0s
     0     0 11084.8919    0   56 11079.0000 11084.8919  0.05%     -    0s
     0     0 11084.8699    0   59 11079.0000 11084.8699  0.05%     -    0s
     0     0 11084.8417    0   59 11079.0000 11084.8417  0.05%     -    0s
H    0     0                    11080.000000 11083.2820  0.03%     -    0s
     0     0 11083.2820    0   73 11080.0000 11083.2820  0.03%     -    0s
     0     0 11083.0644    0   76 11080.0000 11083.0644  0.03%     -    0s
     0     0 11083.0258    0   77 11080.0000 11083.0258  0.03%     -    0s
     0     0 11083.0135    0   80 11080.0000 11083.0135  0.03%     -    0s
     0     0 11083.0112    0   81 11080.0000 11083.0112  0.03%     -    0s
     0     0 11082.3564    0   74 11080.0000 11082.3564  0.02%     -    0s
     0     0 11082.1086    0   49 11080.0000 11082.1086  0.02%     -    0s
     0     0 11082.0626    0   58 11080.0000 11082.0626  0.02%     -    0s
     0     0 11082.0622    0   58 11080.0000 11082.0622  0.02%     -    0s
     0     0 11081.7512    0   61 11080.0000 11081.7512  0.02%     -    0s
     0     0 11081.6874    0   44 11080.0000 11081.6874  0.02%     -    0s
     0     0 11081.6468    0   51 11080.0000 11081.6468  0.01%     -    0s
     0     0 11081.6200    0   46 11080.0000 11081.6200  0.01%     -    0s
     0     0 11081.6100    0   47 11080.0000 11081.6100  0.01%     -    0s
     0     0 11081.6077    0   47 11080.0000 11081.6077  0.01%     -    0s
     0     0 11081.5034    0   56 11080.0000 11081.5034  0.01%     -    0s
     0     0 11081.5034    0   38 11080.0000 11081.5034  0.01%     -    0s
     0     0 11081.5034    0   40 11080.0000 11081.5034  0.01%     -    0s
H    0     0                    11081.000000 11081.5034  0.00%     -    0s

Cutting planes:
  Gomory: 6
  Cover: 1
  Implied bound: 3
  Clique: 2
  MIR: 15
  StrongCG: 2
  GUB cover: 14
  RLT: 3

Explored 1 nodes (1189 simplex iterations) in 0.18 seconds (0.09 work units)
Thread count was 8 (of 8 available processors)

Solution count 10: 11081 11080 11080 ... 10969

Optimal solution found (tolerance 0.00e+00)
Best objective 1.108100000000e+04, best bound 1.108100000000e+04, gap 0.0000%
